NAME: ./prFile/tspFile/tsp_file85.tsp
COMMENT: TSP file generated by Python
TYPE: TSP
DIMENSION: 40
EDGE_WEIGHT_TYPE: EUC_2D
NODE_COORD_SECTION
1 46 13
2 58 77
3 29 34
4 47 40
5 93 60
6 83 99
7 36 80
8 30 35
9 61 75
10 38 34
11 19 1
12 72 68
13 70 65
14 2 74
15 18 66
16 75 46
17 37 37
18 21 48
19 77 61
20 8 63
21 41 96
22 57 23
23 98 82
24 54 93
25 85 86
26 6 97
27 10 19
28 55 91
29 20 61
30 53 45
31 56 34
32 26 84
33 67 54
34 70 52
35 48 19
36 55 13
37 81 17
38 43 92
39 3 30
40 51 11
EOF
